[Molden Format]
[Title]
CLPOs

[Atoms] AU
H    1   1          0.0000000000         0.0000000000         0.0000000000 
Be   2   4          0.0000000000         0.0000000000         1.8897261255 
H    3   1          0.0000000000         0.0000000000         3.7794522509 
[GTO]
  1 0 
s   3 1.0  
        3.4252509100         0.1543289707 
        0.6239137300         0.5353281424 
        0.1688554000         0.4446345420 

  2 0 
s   3 1.0  
       30.1678710000         0.1543289700 
        5.4951153000         0.5353281400 
        1.4871927000         0.4446345400 
s   3 1.0  
        1.3148331000        -0.0999672315 
        0.3055389000         0.3995128361 
        0.0993707000         0.7001154807 
p   3 1.0  
        1.3148331000         0.1559162776 
        0.3055389000         0.6076837498 
        0.0993707000         0.3919574092 

  3 0 
s   3 1.0  
        3.4252509100         0.1543289707 
        0.6239137300         0.5353281424 
        0.1688554000         0.4446345420 

[5D]
[9G]
[MO]
 Sym=     1a
 Ene=  0.00000000000000E+00
 Spin= Beta
 Occup= 1.884423
  1       0.448016235816
  2      -0.053366277332
  3       0.057868575256
  4       0.000000000000
  5       0.000000000000
  6      -0.705898132085
  7       0.446468751002
 Sym=     1a
 Ene=  1.00000000000000E+00
 Spin= Beta
 Occup= 0.117090
  1       1.807312590844
  2       0.104988470616
  3      -1.202376305681
  4       0.000000000000
  5       0.000000000000
  6       1.360707954839
  7      -0.503582832366
 Sym=     1a
 Ene=  2.00000000000000E+00
 Spin= Beta
 Occup= 2.000000
  1      -0.063935532879
  2       1.022261886358
  3      -0.047798723877
  4       0.000000000000
  5       0.000000000000
  6      -0.000000000006
  7      -0.063935532880
 Sym=     1a
 Ene=  3.00000000000000E+00
 Spin= Beta
 Occup= 0.000000
  1       0.000000000000
  2       0.000000000000
  3       0.000000000000
  4       1.000000000037
  5       0.000000000000
  6       0.000000000000
  7       0.000000000000
 Sym=     1a
 Ene=  4.00000000000000E+00
 Spin= Beta
 Occup= 0.000000
  1       0.000000000000
  2       0.000000000000
  3       0.000000000000
  4       0.000000000000
  5       1.000000000037
  6       0.000000000000
  7       0.000000000000
 Sym=     1a
 Ene=  5.00000000000000E+00
 Spin= Beta
 Occup= 1.882910
  1       0.448486068123
  2      -0.053042342989
  3       0.054621644749
  4       0.000000000000
  5       0.000000000000
  6       0.707265257280
  7       0.448718695277
 Sym=     1a
 Ene=  6.00000000000000E+00
 Spin= Beta
 Occup= 0.115577
  1      -0.508970204356
  2       0.104631135471
  3      -1.198597826748
  4       0.000000000000
  5       0.000000000000
  6      -1.366847407065
  7       1.809146010975
